CKP/n50_Instance_6.dat
param n := 50;
param k1 := 27;
param k2 := 47;
param k3 := 52;

param M3 := 35;
param M2 := 559;
param M1 := 10641;
param b3p := 1837;
param b3 := 1838;
#param b2p := 28669;
#param b2 := 28670;
#param bp := 326617;
#param b := 326618;

param: p1   p2   p3   r   := 
1  1  1  1  -1
2  1  1  1  0
3  1  1  1  1
4  1  1  2  -1
5  1  1  2  0
6  1  1  2  1
7  1  1  3  -1
8  1  1  3  0
9  1  1  3  1
10  1  2  1  -1
11  1  2  1  0
12  1  2  1  1
13  1  2  2  -1
14  1  2  2  0
15  1  2  2  1
16  1  2  3  -1
17  1  2  3  0
18  1  2  3  1
19  1  3  1  -1
20  1  3  1  0
21  1  3  1  1
22  1  3  2  -1
23  1  3  2  0
24  1  1  1  0
25  1  1  1  1
26  1  1  2  -1
27  1  1  2  1
28  1  1  3  -1
29  1  1  3  1
30  1  2  1  -1
31  1  2  1  0
32  1  2  1  1
33  1  2  2  -1
34  1  2  2  0
35  1  2  2  1
36  1  2  3  0
37  1  2  3  1
38  1  3  1  -1
39  1  3  1  0
40  1  3  1  1
41  1  3  2  -1
42  1  3  2  0
43  1  3  3  -1
44  1  3  3  0
45  1  3  3  1
46  2  1  1  -1
47  2  1  1  0
48  2  1  1  1
49  2  1  2  0
50  2  1  3  0;